% demand
num_movements = 24;
loading_factor = [1950, 1000, 1000, 950, 1650, 1350, 1650, 1300, 1250, 2000, 1250, 1900, 1750, 850, 1150, 1450, 1750, 1500, 1000, 1150, 1550, 1950, 1350, 1750];
pickup_time = [0, 0, 0, 1, 1, 1, 1, 1, 2, 2, 2, 3, 3, 3, 5, 6, 6, 6, 7, 7, 8, 8, 8, 10];
delivery_time = [1, 1, 1, 2, 3, 2, 2, 2, 3, 6, 3, 7, 5, 6, 6, 7, 7, 7, 12, 11, 12, 9, 12, 12];

% transporter definition
total_capacity = 7000;
num_decks = 3;
capacity = [3000, 1000, 3000];

% ways out of decks
num_ways_out = 1;
paths_out = array3d(decks, ways_out, decks, [
% ways out of deck d1
2, 3, 0, 

% ways out of deck d2
3, 0, 0, 

% ways out of deck d3
0, 0, 0,	

]);

